
******************************************************************************
This program contains Ipopt, a library for large-scale nonlinear optimization.
 Ipopt is released as open source code under the Eclipse Public License (EPL).
         For more information visit http://projects.coin-or.org/Ipopt
******************************************************************************

This is Ipopt version 3.12.6, running with linear solver ma57.

Number of nonzeros in equality constraint Jacobian...:        7
Number of nonzeros in inequality constraint Jacobian.:     1596
Number of nonzeros in Lagrangian Hessian.............:       28

Total number of variables............................:        7
                     variables with only lower bounds:        0
                variables with lower and upper bounds:        7
                     variables with only upper bounds:        0
Total number of equality constraints.................:        1
Total number of inequality constraints...............:      228
        inequality constraints with only lower bounds:      227
   inequality constraints with lower and upper bounds:        0
        inequality constraints with only upper bounds:        1

iter    objective    inf_pr   inf_du lg(mu)  ||d||  lg(rg) alpha_du alpha_pr  ls
   0  3.1307788e+03 5.32e+00 1.03e+02  -1.0 0.00e+00    -  0.00e+00 0.00e+00   0
   1  4.3076033e+03 5.28e+00 1.03e+02  -1.0 1.08e+02    -  6.10e-03 6.10e-03f  1
   2  6.0661213e+03 5.22e+00 1.02e+02  -1.0 1.06e+02    -  3.41e-02 8.84e-03f  1
   3  7.9148293e+03 5.16e+00 1.01e+02  -1.0 1.06e+02    -  3.23e-02 8.83e-03f  1
   4  8.9262764e+03 5.12e+00 1.00e+02  -1.0 9.71e+01    -  5.75e-02 1.08e-02f  1
   5  1.0552926e+04 5.04e+00 9.84e+01  -1.0 1.44e+02    -  4.82e-02 1.54e-02f  1
   6  1.4296926e+05 0.00e+00 3.70e+02  -1.0 8.84e+01    -  8.81e-02 1.00e+00h  1
   7  1.3315461e+05 1.11e-16 1.49e+02  -1.0 2.36e+00    -  2.83e-01 1.00e+00f  1
   8  4.7756765e+04 0.00e+00 6.73e+01  -1.0 4.96e+01    -  9.96e-02 1.00e+00f  1
   9  3.3928818e+04 5.55e-17 4.71e+01  -1.0 4.12e+00    -  2.51e-01 1.00e+00f  1
iter    objective    inf_pr   inf_du lg(mu)  ||d||  lg(rg) alpha_du alpha_pr  ls
  10  1.5059462e+04 0.00e+00 4.52e+01  -1.0 2.75e+02    -  2.49e-02 4.25e-02f  1
  11  1.5307914e+04 1.25e-16 5.57e+01  -1.0 4.24e+00    -  3.95e-01 1.00e+00f  1
  12  1.1523298e+04 6.94e-17 4.94e+01  -1.0 6.04e+01    -  1.02e-01 5.14e-02f  1
  13  6.3928173e+03 6.59e-17 1.77e+01  -1.0 2.09e+01    -  6.19e-01 4.67e-01f  1
  14  5.0411724e+03 1.01e-16 6.78e+00  -1.0 1.20e+01    -  1.00e+00 2.50e-01f  1
  15  4.5857701e+03 5.20e-17 1.00e-06  -1.0 4.17e+00    -  1.00e+00 1.00e+00f  1
  16  3.7419316e+03 6.94e-17 6.46e-01  -2.5 2.19e+00    -  7.82e-01 9.75e-01f  1
  17  3.5827106e+03 1.76e-17 3.02e-02  -2.5 9.71e-01    -  9.63e-01 9.45e-01f  1
  18  3.5789383e+03 4.54e-17 2.83e-08  -2.5 4.06e-01    -  1.00e+00 1.00e+00f  1
  19  3.5527055e+03 2.23e-17 1.50e-09  -3.8 1.79e-01    -  1.00e+00 1.00e+00f  1
iter    objective    inf_pr   inf_du lg(mu)  ||d||  lg(rg) alpha_du alpha_pr  ls
  20  3.5513204e+03 3.57e-17 1.84e-11  -5.7 3.00e-02    -  1.00e+00 1.00e+00f  1
  21  3.5513032e+03 8.24e-17 2.51e-14  -8.6 5.43e-04    -  1.00e+00 1.00e+00f  1

Number of Iterations....: 21

                                   (scaled)                 (unscaled)
Objective...............:   1.4836984265388062e+00    3.5513032085643113e+03
Dual infeasibility......:   2.5059035600428338e-14    5.9980001285659435e-11
Constraint violation....:   8.2439056543411081e-17    8.2439056543411081e-17
Complementarity.........:   3.8602538270464049e-09    9.2397023253862713e-06
Overall NLP error.......:   3.8602538270464049e-09    9.2397023253862713e-06


Number of objective function evaluations             = 22
Number of objective gradient evaluations             = 22
Number of equality constraint evaluations            = 22
Number of inequality constraint evaluations          = 22
Number of equality constraint Jacobian evaluations   = 22
Number of inequality constraint Jacobian evaluations = 22
Number of Lagrangian Hessian evaluations             = 21
Total CPU secs in IPOPT (w/o function evaluations)   =      0.013
Total CPU secs in NLP function evaluations           =      0.000

EXIT: Optimal Solution Found.

************************ CUTEst statistics ************************


 Package used            :  IPOPT
 Problem                 :  DUALC2    
 # variables             =               7
 # constraints           =             229
 # objective functions   =        0.4500000E+02
 # objective gradients   =        0.2300000E+02
 # objective Hessians    =        0.2200000E+02
 # Hessian-vector prdct  =        0.0000000E+00
 # constraints functions =        0.4600000E+02
 # constraints gradients =        0.2400000E+02
 # constraints Hessians  =        0.2200000E+02
 Exit code               =               0
 Final f                 =   0.3551303E+04
 Set up time             =            0.01 seconds
 Solve time              =            0.05 seconds


******************************************************************

System Time =       0.0140000004 s.
